Route #1: 1 8 2 3 13 14 4 9 5 6 16 15 25 26 37 31 47 46 59 73 78 74 60 52 48 38 27 20 17 7 10 18 21 11 28 32 39 49 50 68 62 61 67 81 82 94 100 93 87 80 79 92 99 91 90 77 89 98 86 76 72 58 57 66 65 56 44 45 36 30 35 29 24 19 12 23 22 33 34 41 42 43 55 64 71 85 97 96 84 88 95 83 69 63 53 40 51 54 70 75
Cost 45394
